36214.34 0
66 74 158 35 128 107 198 196 175 190 28 127 57 110 192 102 120 22 41 184 21 172 152 69 48 169 97 138 93 174 129 80 33 148 185 37 0 49 168 125 199 155 161 31 104 96 166 139 16 89 88 10 167 109 65 7 51 137 119 179 26 23 164 87 178 12 78 180 146 40 83 136 171 14 153 62 53 90 76 42 70 187 121 122 3 43 92 59 52 123 117 4 176 2 82 39 5 58 149 63 84 17 113 24 19 141 8 101 54 112 25 86 162 130 147 94 55 20 181 163 132 46 114 11 27 150 9 177 116 91 140 47 1 99 191 50 118 36 195 18 135 144 61 34 29 143 115 154 38 72 15 151 157 183 106 156 193 79 75 126 160 134 71 56 30 98 77 173 64 159 85 95 142 188 186 13 67 32 165 44 103 182 81 105 133 68 124 108 145 45 189 100 194 197 73 111 60 170 6 131